\ENCODING=ISO-8859-1
\Problem name: IloCplex

Maximize
 Max_Cycle_Covers_Objective: 2 s_0 + 2 s_1 + 3 s_2
Subject To
 c1:  <= 1
 c2:  s_0 + s_1 + s_2 <= 1
 c3:  <= 1
 c4:  <= 1
 c5:  s_0 + s_2 <= 1
 c6:  <= 1
 c7:  <= 1
 c8:  <= 1
 c9:  <= 1
 c10: <= 1
 c11: <= 1
 c12: <= 1
 c13: <= 1
 c14: <= 1
 c15: <= 1
 c16: <= 1
 c17: <= 1
 c18: <= 1
 c19: <= 1
 c20: <= 1
 c21: <= 1
 c22: <= 1
 c23: <= 1
 c24: <= 1
 c25: s_1 + s_2 <= 1
Bounds
 0 <= s_0 <= 1
 0 <= s_1 <= 1
 0 <= s_2 <= 1
Binaries
 s_0  s_1  s_2 
End
